Minimize
	value: tt

Subject to
tt + 500 s_1_1 > 0
tt - t_1_1 - 503.000000 s_1_1 + 3.000000 s_1_6 > -483.226700
tt + 500 s_2_1 > 0
tt - t_2_1 - 503.000000 s_2_1 + 3.000000 s_2_6 > -486.419000
tt + 500 s_1_2 > 0
tt - t_1_2 - 503.000000 s_1_2 + 3.000000 s_1_7 > -481.099322
tt + 500 s_2_2 > 0
tt - t_2_2 - 503.000000 s_2_2 + 3.000000 s_2_7 > -484.399000
tt + 500 s_1_3 > 0
tt - t_1_3 - 503.000000 s_1_3 + 3.000000 s_1_7 > -471.269267
tt + 500 s_2_3 > 0
tt - t_2_3 - 503.000000 s_2_3 + 3.000000 s_2_7 > -475.441000
tt + 500 s_1_4 > 0
tt - t_1_4 - 512.000000 s_1_4 + 12.000000 s_1_3 > -485.160767
tt + 500 s_2_4 > 0
tt - t_2_4 - 512.000000 s_2_4 + 12.000000 s_2_3 > -483.075000
tt + 500 s_1_5 > 0
tt - t_1_5 - 512.000000 s_1_5 + 12.000000 s_1_6 > -486.570300
tt + 500 s_2_5 > 0
tt - t_2_5 - 512.000000 s_2_5 + 12.000000 s_2_6 > -486.372000
tt + 500 s_1_6 > 0
tt - t_1_6 - 500.000000 s_1_6 > -480.956267
tt + 500 s_2_6 > 0
tt - t_2_6 - 500.000000 s_2_6 > -443.634000
tt + 500 s_1_7 > 0
tt - t_1_7 - 500.000000 s_1_7 > -480.078700
tt + 500 s_2_7 > 0
tt - t_2_7 - 500.000000 s_2_7 > -491.622000
tt + 500 s_1_8 > 0
tt - t_1_8 - 575.000000 s_1_8 + 75.000000 s_1_2 > -498.467500
tt + 500 s_2_8 > 0
tt - t_2_8 - 575.000000 s_2_8 + 75.000000 s_2_2 > -491.472000
s_1_1 + s_2_1  = 1
s_1_2 + s_2_2  = 1
s_1_3 + s_2_3  = 1
s_1_4 + s_2_4  = 1
s_1_5 + s_2_5  = 1
s_1_6 + s_2_6  = 1
s_1_7 + s_2_7  = 1
s_1_8 + s_2_8  = 1
t_1_1 - t_1_2 + 500.000000 u_1_1_2 - 3.000000 s_1_2 + 3.000000 s_1_7 > 18.900678
t_1_2 - t_1_1 - 500.000000 u_1_1_2 > -483.226700
t_2_1 - t_2_2 + 500.000000 u_2_1_2 - 3.000000 s_2_2 + 3.000000 s_2_7 > 15.601000
t_2_2 - t_2_1 - 500.000000 u_2_1_2 > -486.419000
t_1_1 - t_1_3 + 500.000000 u_1_1_3 - 3.000000 s_1_3 + 3.000000 s_1_7 > 28.730733
t_1_3 - t_1_1 - 500.000000 u_1_1_3 > -483.226700
t_2_1 - t_2_3 + 500.000000 u_2_1_3 - 3.000000 s_2_3 + 3.000000 s_2_7 > 24.559000
t_2_3 - t_2_1 - 500.000000 u_2_1_3 > -486.419000
t_1_1 - t_1_4 + 500.000000 u_1_1_4 - 6.000000 s_1_4 + 6.000000 s_1_3 > 14.839233
t_1_4 - t_1_1 - 500.000000 u_1_1_4 > -483.226700
t_2_1 - t_2_4 + 500.000000 u_2_1_4 - 6.000000 s_2_4 + 6.000000 s_2_3 > 16.925000
t_2_4 - t_2_1 - 500.000000 u_2_1_4 > -486.419000
t_1_1 - t_1_5 + 500.000000 u_1_1_5 - 6.000000 s_1_5 + 6.000000 s_1_6 > 13.429700
t_1_5 - t_1_1 - 500.000000 u_1_1_5 > -483.226700
t_2_1 - t_2_5 + 500.000000 u_2_1_5 - 6.000000 s_2_5 + 6.000000 s_2_6 > 13.628000
t_2_5 - t_2_1 - 500.000000 u_2_1_5 > -486.419000
t_1_1 - t_1_6 - 500.000000 s_1_6 > -477.956267
t_1_1 - t_2_6 - 500.000000 s_2_6 > -440.634000
t_2_1 - t_1_6 - 500.000000 s_1_6 > -477.956267
t_2_1 - t_2_6 - 500.000000 s_2_6 > -440.634000
t_1_1 - t_1_7 + 500.000000 u_1_1_7 > 19.921300
t_1_7 - t_1_1 - 500.000000 u_1_1_7 > -483.226700
t_2_1 - t_2_7 + 500.000000 u_2_1_7 > 8.378000
t_2_7 - t_2_1 - 500.000000 u_2_1_7 > -486.419000
t_1_8 - t_1_1 - 500.000000 s_1_1 > -480.226700
t_1_8 - t_2_1 - 500.000000 s_2_1 > -483.419000
t_2_8 - t_1_1 - 500.000000 s_1_1 > -480.226700
t_2_8 - t_2_1 - 500.000000 s_2_1 > -483.419000
t_1_2 - t_1_1 + 500.000000 u_1_2_1 - 3.000000 s_1_1 + 3.000000 s_1_6 > 16.773300
t_1_1 - t_1_2 - 500.000000 u_1_2_1 > -481.099322
t_2_2 - t_2_1 + 500.000000 u_2_2_1 - 3.000000 s_2_1 + 3.000000 s_2_6 > 13.581000
t_2_1 - t_2_2 - 500.000000 u_2_2_1 > -484.399000
t_1_2 - t_1_3 + 500.000000 u_1_2_3 - 3.000000 s_1_3 + 3.000000 s_1_7 > 28.730733
t_1_3 - t_1_2 - 500.000000 u_1_2_3 > -481.099322
t_2_2 - t_2_3 + 500.000000 u_2_2_3 - 3.000000 s_2_3 + 3.000000 s_2_7 > 24.559000
t_2_3 - t_2_2 - 500.000000 u_2_2_3 > -484.399000
t_1_2 - t_1_4 + 500.000000 u_1_2_4 - 6.000000 s_1_4 + 6.000000 s_1_3 > 14.839233
t_1_4 - t_1_2 - 500.000000 u_1_2_4 > -481.099322
t_2_2 - t_2_4 + 500.000000 u_2_2_4 - 6.000000 s_2_4 + 6.000000 s_2_3 > 16.925000
t_2_4 - t_2_2 - 500.000000 u_2_2_4 > -484.399000
t_1_2 - t_1_5 + 500.000000 u_1_2_5 - 6.000000 s_1_5 + 6.000000 s_1_6 > 13.429700
t_1_5 - t_1_2 - 500.000000 u_1_2_5 > -481.099322
t_2_2 - t_2_5 + 500.000000 u_2_2_5 - 6.000000 s_2_5 + 6.000000 s_2_6 > 13.628000
t_2_5 - t_2_2 - 500.000000 u_2_2_5 > -484.399000
t_1_2 - t_1_6 + 500.000000 u_1_2_6 > 19.043733
t_1_6 - t_1_2 - 500.000000 u_1_2_6 > -481.099322
t_2_2 - t_2_6 + 500.000000 u_2_2_6 > 56.366000
t_2_6 - t_2_2 - 500.000000 u_2_2_6 > -484.399000
t_1_2 - t_1_7 - 500.000000 s_1_7 > -477.078700
t_1_2 - t_2_7 - 500.000000 s_2_7 > -488.622000
t_2_2 - t_1_7 - 500.000000 s_1_7 > -477.078700
t_2_2 - t_2_7 - 500.000000 s_2_7 > -488.622000
t_1_8 - t_1_2 - 500.000000 s_1_2 > -478.099322
t_1_8 - t_2_2 - 500.000000 s_2_2 > -481.399000
t_2_8 - t_1_2 - 500.000000 s_1_2 > -478.099322
t_2_8 - t_2_2 - 500.000000 s_2_2 > -481.399000
t_1_3 - t_1_1 + 500.000000 u_1_3_1 - 3.000000 s_1_1 + 3.000000 s_1_6 > 16.773300
t_1_1 - t_1_3 - 500.000000 u_1_3_1 > -471.269267
t_2_3 - t_2_1 + 500.000000 u_2_3_1 - 3.000000 s_2_1 + 3.000000 s_2_6 > 13.581000
t_2_1 - t_2_3 - 500.000000 u_2_3_1 > -475.441000
t_1_3 - t_1_2 + 500.000000 u_1_3_2 - 3.000000 s_1_2 + 3.000000 s_1_7 > 18.900678
t_1_2 - t_1_3 - 500.000000 u_1_3_2 > -471.269267
t_2_3 - t_2_2 + 500.000000 u_2_3_2 - 3.000000 s_2_2 + 3.000000 s_2_7 > 15.601000
t_2_2 - t_2_3 - 500.000000 u_2_3_2 > -475.441000
t_1_4 - t_1_3 - 500.000000 s_1_3 > -468.269267
t_1_4 - t_2_3 - 500.000000 s_2_3 > -472.441000
t_2_4 - t_1_3 - 500.000000 s_1_3 > -468.269267
t_2_4 - t_2_3 - 500.000000 s_2_3 > -472.441000
t_1_3 - t_1_5 + 500.000000 u_1_3_5 - 6.000000 s_1_5 + 6.000000 s_1_6 > 13.429700
t_1_5 - t_1_3 - 500.000000 u_1_3_5 > -471.269267
t_2_3 - t_2_5 + 500.000000 u_2_3_5 - 6.000000 s_2_5 + 6.000000 s_2_6 > 13.628000
t_2_5 - t_2_3 - 500.000000 u_2_3_5 > -475.441000
t_1_3 - t_1_6 + 500.000000 u_1_3_6 > 19.043733
t_1_6 - t_1_3 - 500.000000 u_1_3_6 > -471.269267
t_2_3 - t_2_6 + 500.000000 u_2_3_6 > 56.366000
t_2_6 - t_2_3 - 500.000000 u_2_3_6 > -475.441000
t_1_3 - t_1_7 - 500.000000 s_1_7 > -477.078700
t_1_3 - t_2_7 - 500.000000 s_2_7 > -488.622000
t_2_3 - t_1_7 - 500.000000 s_1_7 > -477.078700
t_2_3 - t_2_7 - 500.000000 s_2_7 > -488.622000
t_1_8 - t_1_3 - 500.000000 s_1_3 > -468.269267
t_1_8 - t_2_3 - 500.000000 s_2_3 > -472.441000
t_2_8 - t_1_3 - 500.000000 s_1_3 > -468.269267
t_2_8 - t_2_3 - 500.000000 s_2_3 > -472.441000
t_1_4 - t_1_1 + 500.000000 u_1_4_1 - 3.000000 s_1_1 + 3.000000 s_1_6 > 16.773300
t_1_1 - t_1_4 - 500.000000 u_1_4_1 > -485.160767
t_2_4 - t_2_1 + 500.000000 u_2_4_1 - 3.000000 s_2_1 + 3.000000 s_2_6 > 13.581000
t_2_1 - t_2_4 - 500.000000 u_2_4_1 > -483.075000
t_1_4 - t_1_2 + 500.000000 u_1_4_2 - 3.000000 s_1_2 + 3.000000 s_1_7 > 18.900678
t_1_2 - t_1_4 - 500.000000 u_1_4_2 > -485.160767
t_2_4 - t_2_2 + 500.000000 u_2_4_2 - 3.000000 s_2_2 + 3.000000 s_2_7 > 15.601000
t_2_2 - t_2_4 - 500.000000 u_2_4_2 > -483.075000
t_1_4 - t_1_3 - 500.000000 s_1_3 > -468.269267
t_1_4 - t_2_3 - 500.000000 s_2_3 > -472.441000
t_2_4 - t_1_3 - 500.000000 s_1_3 > -468.269267
t_2_4 - t_2_3 - 500.000000 s_2_3 > -472.441000
t_1_4 - t_1_5 + 500.000000 u_1_4_5 - 6.000000 s_1_5 + 6.000000 s_1_6 > 13.429700
t_1_5 - t_1_4 - 500.000000 u_1_4_5 > -485.160767
t_2_4 - t_2_5 + 500.000000 u_2_4_5 - 6.000000 s_2_5 + 6.000000 s_2_6 > 13.628000
t_2_5 - t_2_4 - 500.000000 u_2_4_5 > -483.075000
t_1_4 - t_1_6 + 500.000000 u_1_4_6 > 19.043733
t_1_6 - t_1_4 - 500.000000 u_1_4_6 > -485.160767
t_2_4 - t_2_6 + 500.000000 u_2_4_6 > 56.366000
t_2_6 - t_2_4 - 500.000000 u_2_4_6 > -483.075000
t_1_4 - t_1_7 - 500.000000 s_1_7 > -477.078700
t_1_4 - t_2_7 - 500.000000 s_2_7 > -488.622000
t_2_4 - t_1_7 - 500.000000 s_1_7 > -477.078700
t_2_4 - t_2_7 - 500.000000 s_2_7 > -488.622000
t_1_8 - t_1_4 - 500.000000 s_1_4 > -479.160767
t_1_8 - t_2_4 - 500.000000 s_2_4 > -477.075000
t_2_8 - t_1_4 - 500.000000 s_1_4 > -479.160767
t_2_8 - t_2_4 - 500.000000 s_2_4 > -477.075000
t_1_5 - t_1_1 + 500.000000 u_1_5_1 - 3.000000 s_1_1 + 3.000000 s_1_6 > 16.773300
t_1_1 - t_1_5 - 500.000000 u_1_5_1 > -486.570300
t_2_5 - t_2_1 + 500.000000 u_2_5_1 - 3.000000 s_2_1 + 3.000000 s_2_6 > 13.581000
t_2_1 - t_2_5 - 500.000000 u_2_5_1 > -486.372000
t_1_5 - t_1_2 + 500.000000 u_1_5_2 - 3.000000 s_1_2 + 3.000000 s_1_7 > 18.900678
t_1_2 - t_1_5 - 500.000000 u_1_5_2 > -486.570300
t_2_5 - t_2_2 + 500.000000 u_2_5_2 - 3.000000 s_2_2 + 3.000000 s_2_7 > 15.601000
t_2_2 - t_2_5 - 500.000000 u_2_5_2 > -486.372000
t_1_5 - t_1_3 + 500.000000 u_1_5_3 - 3.000000 s_1_3 + 3.000000 s_1_7 > 28.730733
t_1_3 - t_1_5 - 500.000000 u_1_5_3 > -486.570300
t_2_5 - t_2_3 + 500.000000 u_2_5_3 - 3.000000 s_2_3 + 3.000000 s_2_7 > 24.559000
t_2_3 - t_2_5 - 500.000000 u_2_5_3 > -486.372000
t_1_5 - t_1_4 + 500.000000 u_1_5_4 - 6.000000 s_1_4 + 6.000000 s_1_3 > 14.839233
t_1_4 - t_1_5 - 500.000000 u_1_5_4 > -486.570300
t_2_5 - t_2_4 + 500.000000 u_2_5_4 - 6.000000 s_2_4 + 6.000000 s_2_3 > 16.925000
t_2_4 - t_2_5 - 500.000000 u_2_5_4 > -486.372000
t_1_5 - t_1_6 - 500.000000 s_1_6 > -477.956267
t_1_5 - t_2_6 - 500.000000 s_2_6 > -440.634000
t_2_5 - t_1_6 - 500.000000 s_1_6 > -477.956267
t_2_5 - t_2_6 - 500.000000 s_2_6 > -440.634000
t_1_5 - t_1_7 - 500.000000 s_1_7 > -477.078700
t_1_5 - t_2_7 - 500.000000 s_2_7 > -488.622000
t_2_5 - t_1_7 - 500.000000 s_1_7 > -477.078700
t_2_5 - t_2_7 - 500.000000 s_2_7 > -488.622000
t_1_8 - t_1_5 - 500.000000 s_1_5 > -480.570300
t_1_8 - t_2_5 - 500.000000 s_2_5 > -480.372000
t_2_8 - t_1_5 - 500.000000 s_1_5 > -480.570300
t_2_8 - t_2_5 - 500.000000 s_2_5 > -480.372000
t_1_1 - t_1_6 - 500.000000 s_1_6 > -477.956267
t_1_1 - t_2_6 - 500.000000 s_2_6 > -440.634000
t_2_1 - t_1_6 - 500.000000 s_1_6 > -477.956267
t_2_1 - t_2_6 - 500.000000 s_2_6 > -440.634000
t_1_6 - t_1_2 + 500.000000 u_1_6_2 - 3.000000 s_1_2 + 3.000000 s_1_7 > 18.900678
t_1_2 - t_1_6 - 500.000000 u_1_6_2 > -480.956267
t_2_6 - t_2_2 + 500.000000 u_2_6_2 - 3.000000 s_2_2 + 3.000000 s_2_7 > 15.601000
t_2_2 - t_2_6 - 500.000000 u_2_6_2 > -443.634000
t_1_6 - t_1_3 + 500.000000 u_1_6_3 - 3.000000 s_1_3 + 3.000000 s_1_7 > 28.730733
t_1_3 - t_1_6 - 500.000000 u_1_6_3 > -480.956267
t_2_6 - t_2_3 + 500.000000 u_2_6_3 - 3.000000 s_2_3 + 3.000000 s_2_7 > 24.559000
t_2_3 - t_2_6 - 500.000000 u_2_6_3 > -443.634000
t_1_6 - t_1_4 + 500.000000 u_1_6_4 - 6.000000 s_1_4 + 6.000000 s_1_3 > 14.839233
t_1_4 - t_1_6 - 500.000000 u_1_6_4 > -480.956267
t_2_6 - t_2_4 + 500.000000 u_2_6_4 - 6.000000 s_2_4 + 6.000000 s_2_3 > 16.925000
t_2_4 - t_2_6 - 500.000000 u_2_6_4 > -443.634000
t_1_5 - t_1_6 - 500.000000 s_1_6 > -477.956267
t_1_5 - t_2_6 - 500.000000 s_2_6 > -440.634000
t_2_5 - t_1_6 - 500.000000 s_1_6 > -477.956267
t_2_5 - t_2_6 - 500.000000 s_2_6 > -440.634000
t_1_6 - t_1_7 + 500.000000 u_1_6_7 > 19.921300
t_1_7 - t_1_6 - 500.000000 u_1_6_7 > -480.956267
t_2_6 - t_2_7 + 500.000000 u_2_6_7 > 8.378000
t_2_7 - t_2_6 - 500.000000 u_2_6_7 > -443.634000
t_1_7 - t_1_1 + 500.000000 u_1_7_1 - 3.000000 s_1_1 + 3.000000 s_1_6 > 16.773300
t_1_1 - t_1_7 - 500.000000 u_1_7_1 > -480.078700
t_2_7 - t_2_1 + 500.000000 u_2_7_1 - 3.000000 s_2_1 + 3.000000 s_2_6 > 13.581000
t_2_1 - t_2_7 - 500.000000 u_2_7_1 > -491.622000
t_1_2 - t_1_7 - 500.000000 s_1_7 > -477.078700
t_1_2 - t_2_7 - 500.000000 s_2_7 > -488.622000
t_2_2 - t_1_7 - 500.000000 s_1_7 > -477.078700
t_2_2 - t_2_7 - 500.000000 s_2_7 > -488.622000
t_1_3 - t_1_7 - 500.000000 s_1_7 > -477.078700
t_1_3 - t_2_7 - 500.000000 s_2_7 > -488.622000
t_2_3 - t_1_7 - 500.000000 s_1_7 > -477.078700
t_2_3 - t_2_7 - 500.000000 s_2_7 > -488.622000
t_1_4 - t_1_7 - 500.000000 s_1_7 > -477.078700
t_1_4 - t_2_7 - 500.000000 s_2_7 > -488.622000
t_2_4 - t_1_7 - 500.000000 s_1_7 > -477.078700
t_2_4 - t_2_7 - 500.000000 s_2_7 > -488.622000
t_1_5 - t_1_7 - 500.000000 s_1_7 > -477.078700
t_1_5 - t_2_7 - 500.000000 s_2_7 > -488.622000
t_2_5 - t_1_7 - 500.000000 s_1_7 > -477.078700
t_2_5 - t_2_7 - 500.000000 s_2_7 > -488.622000
t_1_7 - t_1_6 + 500.000000 u_1_7_6 > 19.043733
t_1_6 - t_1_7 - 500.000000 u_1_7_6 > -480.078700
t_2_7 - t_2_6 + 500.000000 u_2_7_6 > 56.366000
t_2_6 - t_2_7 - 500.000000 u_2_7_6 > -491.622000
t_1_8 - t_1_1 - 500.000000 s_1_1 > -480.226700
t_1_8 - t_2_1 - 500.000000 s_2_1 > -483.419000
t_2_8 - t_1_1 - 500.000000 s_1_1 > -480.226700
t_2_8 - t_2_1 - 500.000000 s_2_1 > -483.419000
t_1_8 - t_1_2 - 500.000000 s_1_2 > -478.099322
t_1_8 - t_2_2 - 500.000000 s_2_2 > -481.399000
t_2_8 - t_1_2 - 500.000000 s_1_2 > -478.099322
t_2_8 - t_2_2 - 500.000000 s_2_2 > -481.399000
t_1_8 - t_1_3 - 500.000000 s_1_3 > -468.269267
t_1_8 - t_2_3 - 500.000000 s_2_3 > -472.441000
t_2_8 - t_1_3 - 500.000000 s_1_3 > -468.269267
t_2_8 - t_2_3 - 500.000000 s_2_3 > -472.441000
t_1_8 - t_1_4 - 500.000000 s_1_4 > -479.160767
t_1_8 - t_2_4 - 500.000000 s_2_4 > -477.075000
t_2_8 - t_1_4 - 500.000000 s_1_4 > -479.160767
t_2_8 - t_2_4 - 500.000000 s_2_4 > -477.075000
t_1_8 - t_1_5 - 500.000000 s_1_5 > -480.570300
t_1_8 - t_2_5 - 500.000000 s_2_5 > -480.372000
t_2_8 - t_1_5 - 500.000000 s_1_5 > -480.570300
t_2_8 - t_2_5 - 500.000000 s_2_5 > -480.372000
Binary
s_1_1
s_2_1
s_1_2
s_2_2
s_1_3
s_2_3
s_1_4
s_2_4
s_1_5
s_2_5
s_1_6
s_2_6
s_1_7
s_2_7
s_1_8
s_2_8
u_1_1_2
u_2_1_2
u_1_1_3
u_2_1_3
u_1_1_4
u_2_1_4
u_1_1_5
u_2_1_5
u_1_1_7
u_2_1_7
u_1_2_1
u_2_2_1
u_1_2_3
u_2_2_3
u_1_2_4
u_2_2_4
u_1_2_5
u_2_2_5
u_1_2_6
u_2_2_6
u_1_3_1
u_2_3_1
u_1_3_2
u_2_3_2
u_1_3_5
u_2_3_5
u_1_3_6
u_2_3_6
u_1_4_1
u_2_4_1
u_1_4_2
u_2_4_2
u_1_4_5
u_2_4_5
u_1_4_6
u_2_4_6
u_1_5_1
u_2_5_1
u_1_5_2
u_2_5_2
u_1_5_3
u_2_5_3
u_1_5_4
u_2_5_4
u_1_6_2
u_2_6_2
u_1_6_3
u_2_6_3
u_1_6_4
u_2_6_4
u_1_6_7
u_2_6_7
u_1_7_1
u_2_7_1
u_1_7_6
u_2_7_6

End
